NAME : marvin/utils/output1650528526.5628884.atsp.1648.tour
COMMENT : Length = 1648
COMMENT : Found by LKH-3 [Keld Helsgaun] Thu Apr 21 17:09:24 2022
TYPE : TOUR
DIMENSION : 30
TOUR_SECTION
1
21
13
3
2
8
27
10
26
6
25
4
28
23
20
18
19
5
30
16
15
17
12
7
29
11
9
14
22
24
-1
EOF
